n = 35;
lu = [|499, 532
      |-954, -809
      |275, 672
      |-1047, 310
      |-529, 1194
      |118, 186
      |-132, 124
      |35, 712
      |416, 1162
      |-880, -311
      |775, 937
      |-649, 563
      |-216, 932
      |-1178, 333
      |308, 972
      |-1125, 841
      |-627, 722
      |-806, -201
      |-757, -701
      |-870, 647
      |-745, 390
      |-477, -24
      |232, 632
      |490, 775
      |-145, -48
      |-493, 550
      |-554, -144
      |-904, 302
      |-246, 917
      |-209, 1100
      |-1108, 21
      |-624, 526
      |-245, 266
      |-1102, -952
      |926, 1096|];
